unknown
(model
; cardinality of BoundSet is 3
(declare-sort BoundSet 0)
; rep: @uc_BoundSet_0
; rep: @uc_BoundSet_1
; rep: @uc_BoundSet_2
(declare-sort UnboundSet 0)
(define-fun IsHas ((BOUND_VARIABLE_418 BoundSet) (BOUND_VARIABLE_419 BoundSet)) Bool true)
(define-fun IsWearing ((BOUND_VARIABLE_424 BoundSet)) Bool true)
(define-fun IsNear ((BOUND_VARIABLE_424 BoundSet)) Bool false)
(define-fun IsStandingTogether ((BOUND_VARIABLE_424 BoundSet)) Bool false)
)
